\* Source Pyomo model name=unknown *\

max 
profit:
+3.1999999999999993 F(1_A)
+2.75 F(1_B)
+2.3000000000000007 F(1_C)
+0.89999999999999858 F(2_A)
+0.44999999999999929 F(2_B)
+1.5999999999999996 F(3_A)
+1.1500000000000004 F(3_B)
+0.70000000000000107 F(3_C)
+1.2999999999999989 F(4_A)
+0.84999999999999964 F(4_B)
+0.40000000000000036 F(4_C)

s.t.

c_u_A1_:
+0.84999999999999998 F(1_A)
-0.14999999999999999 F(2_A)
-0.14999999999999999 F(3_A)
-0.14999999999999999 F(4_A)
<= 0

c_l_A2_:
-0.40000000000000002 F(1_A)
+0.59999999999999998 F(2_A)
-0.40000000000000002 F(3_A)
-0.40000000000000002 F(4_A)
>= 0

c_u_A3_:
-0.5 F(1_A)
-0.5 F(2_A)
+0.5 F(3_A)
-0.5 F(4_A)
<= 0

c_u_B1_:
+0.90000000000000002 F(1_B)
-0.10000000000000001 F(2_B)
-0.10000000000000001 F(3_B)
-0.10000000000000001 F(4_B)
<= 0

c_u_B2_:
-0.10000000000000001 F(1_B)
+0.90000000000000002 F(2_B)
-0.10000000000000001 F(3_B)
-0.10000000000000001 F(4_B)
<= 0

c_u_C1_:
+0.80000000000000004 F(1_C)
-0.20000000000000001 F(2_C)
-0.20000000000000001 F(3_C)
-0.20000000000000001 F(4_C)
<= 0

c_u_disp(1)_:
+1 F(1_A)
+1 F(1_B)
+1 F(1_C)
<= 3000

c_u_disp(2)_:
+1 F(2_A)
+1 F(2_B)
+1 F(2_C)
<= 2000

c_u_disp(3)_:
+1 F(3_A)
+1 F(3_B)
+1 F(3_C)
<= 4000

c_u_disp(4)_:
+1 F(4_A)
+1 F(4_B)
+1 F(4_C)
<= 1000

c_e_ONE_VAR_CONSTANT: 
ONE_VAR_CONSTANT = 1.0

bounds
   0 <= F(1_A) <= +inf
   0 <= F(1_B) <= +inf
   0 <= F(1_C) <= +inf
   0 <= F(2_A) <= +inf
   0 <= F(2_B) <= +inf
   0 <= F(2_C) <= +inf
   0 <= F(3_A) <= +inf
   0 <= F(3_B) <= +inf
   0 <= F(3_C) <= +inf
   0 <= F(4_A) <= +inf
   0 <= F(4_B) <= +inf
   0 <= F(4_C) <= +inf
end
